10330
1 1 1 1 1 1 1 1 1 0 
5 7 8 2 5 2 5 6 3 2 6 3 4 0 6 4 5 0 3 0 7 6 3 5 6 2 5 7 0 3 3 8 2 1 3 7 6 3 6 4 5 7 8 8 1 7 0 2 4 6 9032
1 1 1 1 1 1 1 1 1 0 
5 7 8 2 5 2 5 6 3 2 6 3 4 0 6 4 5 0 3 0 7 6 3 5 6 2 5 7 0 3 3 8 2 1 3 7 6 3 6 4 5 7 8 8 1 7 0 2 4 6 10832
1 1 1 1 1 1 1 1 1 0 
5 7 8 2 5 2 5 6 3 2 6 3 4 0 6 4 5 0 3 0 7 6 3 5 6 2 5 7 0 3 3 8 2 1 3 7 6 3 6 4 5 7 8 8 1 7 0 2 4 6 12632
1 1 1 1 1 1 1 1 1 0 
5 7 8 2 5 2 5 6 3 2 6 3 4 0 6 4 5 0 3 0 7 6 3 5 6 2 5 7 0 3 3 8 2 1 3 7 6 3 6 4 5 7 8 8 1 7 0 2 4 6 11168
1 1 1 1 1 1 1 1 1 0 
5 7 8 2 7 2 5 6 3 2 6 3 4 0 6 4 5 0 3 2 7 6 3 5 6 4 5 7 0 3 3 8 2 1 6 7 8 3 6 4 0 7 8 8 1 7 0 2 4 8 9870
1 1 1 1 1 1 1 1 1 0 
5 7 8 2 7 2 5 6 3 2 6 3 4 0 6 4 5 0 3 2 7 6 3 5 6 4 5 7 0 3 3 8 2 1 6 7 8 3 6 4 0 7 8 8 1 7 0 2 4 8 11670
1 1 1 1 1 1 1 1 1 0 
5 7 8 2 7 2 5 6 3 2 6 3 4 0 6 4 5 0 3 2 7 6 3 5 6 4 5 7 0 3 3 8 2 1 6 7 8 3 6 4 0 7 8 8 1 7 0 2 4 8 13470
1 1 1 1 1 1 1 1 1 0 
5 7 8 2 7 2 5 6 3 2 6 3 4 0 6 4 5 0 3 2 7 6 3 5 6 4 5 7 0 3 3 8 2 1 6 7 8 3 6 4 0 7 8 8 1 7 0 2 4 8 10282
1 1 1 1 1 1 1 1 1 0 
5 7 8 2 7 2 5 6 3 2 6 3 4 0 6 4 5 0 3 7 7 6 3 5 6 2 5 7 0 3 3 8 2 1 3 7 6 3 6 4 5 7 8 8 1 7 0 2 4 6 8984
1 1 1 1 1 1 1 1 1 0 
5 7 8 2 7 2 5 6 3 2 6 3 4 0 6 4 5 0 3 7 7 6 3 5 6 2 5 7 0 3 3 8 2 1 3 7 6 3 6 4 5 7 8 8 1 7 0 2 4 6 10784
1 1 1 1 1 1 1 1 1 0 
5 7 8 2 7 2 5 6 3 2 6 3 4 0 6 4 5 0 3 7 7 6 3 5 6 2 5 7 0 3 3 8 2 1 3 7 6 3 6 4 5 7 8 8 1 7 0 2 4 6 12584
1 1 1 1 1 1 1 1 1 0 
5 7 8 2 7 2 5 6 3 2 6 3 4 0 6 4 5 0 3 7 7 6 3 5 6 2 5 7 0 3 3 8 2 1 3 7 6 3 6 4 5 7 8 8 1 7 0 2 4 6 11492
1 1 0 1 1 1 1 1 1 1 0 1 1 1 1 1 1 1 1 0 
0 6 1 18 7 14 12 11 5 4 18 5 8 6 12 13 4 0 12 1 15 16 4 9 14 3 15 7 5 6 1 0 17 4 0 8 0 6 11 1 0 6 16 17 4 5 12 14 13 8 9257
1 1 0 1 1 1 1 1 1 1 0 1 1 1 1 1 1 1 1 0 
0 6 1 18 7 14 12 11 5 4 18 5 8 6 12 13 4 0 12 1 15 16 4 9 14 3 15 7 5 6 1 0 17 4 0 8 0 6 11 1 0 6 16 17 4 5 12 14 13 8 12657
1 1 0 1 1 1 1 1 1 1 0 1 1 1 1 1 1 1 1 0 
0 6 1 18 7 14 12 11 5 4 18 5 8 6 12 13 4 0 12 1 15 16 4 9 14 3 15 7 5 6 1 0 17 4 0 8 0 6 11 1 0 6 16 17 4 5 12 14 13 8 16057
1 1 0 1 1 1 1 1 1 1 0 1 1 1 1 1 1 1 1 0 
0 6 1 18 7 14 12 11 5 4 18 5 8 6 12 13 4 0 12 1 15 16 4 9 14 3 15 7 5 6 1 0 17 4 0 8 0 6 11 1 0 6 16 17 4 5 12 14 13 8 11492
1 1 0 1 1 1 1 1 1 1 0 1 1 1 1 1 1 1 1 0 
0 6 1 18 7 14 12 11 5 4 18 5 8 6 12 13 4 0 12 1 15 16 4 9 14 3 15 7 5 6 1 0 17 4 0 8 0 6 11 1 0 6 16 17 4 5 12 14 13 8 9257
1 1 0 1 1 1 1 1 1 1 0 1 1 1 1 1 1 1 1 0 
0 6 1 18 7 14 12 11 5 4 18 5 8 6 12 13 4 0 12 1 15 16 4 9 14 3 15 7 5 6 1 0 17 4 0 8 0 6 11 1 0 6 16 17 4 5 12 14 13 8 12657
1 1 0 1 1 1 1 1 1 1 0 1 1 1 1 1 1 1 1 0 
0 6 1 18 7 14 12 11 5 4 18 5 8 6 12 13 4 0 12 1 15 16 4 9 14 3 15 7 5 6 1 0 17 4 0 8 0 6 11 1 0 6 16 17 4 5 12 14 13 8 16057
1 1 0 1 1 1 1 1 1 1 0 1 1 1 1 1 1 1 1 0 
0 6 1 18 7 14 12 11 5 4 18 5 8 6 12 13 4 0 12 1 15 16 4 9 14 3 15 7 5 6 1 0 17 4 0 8 0 6 11 1 0 6 16 17 4 5 12 14 13 8 11492
1 1 0 1 1 1 1 1 1 1 0 1 1 1 1 1 1 1 1 0 
0 6 1 18 7 14 12 11 5 4 18 5 8 6 12 13 4 0 12 1 15 16 4 9 14 3 15 7 5 6 1 0 17 4 0 8 0 6 11 1 0 6 16 17 4 5 12 14 13 8 9257
1 1 0 1 1 1 1 1 1 1 0 1 1 1 1 1 1 1 1 0 
0 6 1 18 7 14 12 11 5 4 18 5 8 6 12 13 4 0 12 1 15 16 4 9 14 3 15 7 5 6 1 0 17 4 0 8 0 6 11 1 0 6 16 17 4 5 12 14 13 8 12657
1 1 0 1 1 1 1 1 1 1 0 1 1 1 1 1 1 1 1 0 
0 6 1 18 7 14 12 11 5 4 18 5 8 6 12 13 4 0 12 1 15 16 4 9 14 3 15 7 5 6 1 0 17 4 0 8 0 6 11 1 0 6 16 17 4 5 12 14 13 8 16057
1 1 0 1 1 1 1 1 1 1 0 1 1 1 1 1 1 1 1 0 
0 6 1 18 7 14 12 11 5 4 18 5 8 6 12 13 4 0 12 1 15 16 4 9 14 3 15 7 5 6 1 0 17 4 0 8 0 6 11 1 0 6 16 17 4 5 12 14 13 8 16655
0 1 0 1 1 1 1 1 1 1 1 1 1 1 0 1 0 1 1 1 1 1 1 1 1 1 1 1 0 0 
21 10 7 3 20 8 13 18 21 1 26 13 24 21 5 23 13 8 7 5 21 27 8 7 5 22 20 8 5 6 4 13 11 9 4 21 27 8 7 5 11 19 15 10 4 7 20 8 5 7 22 13 8 7 13 21 27 8 3 11 22 13 8 7 9 4 17 22 9 3 8 22 18 21 4 10 12 8 7 7 11 13 10 10 4 21 27 24 11 5 4 13 8 9 4 26 13 24 21 5 4 17 17 9 3 22 20 8 25 5 10 20 8 5 7 22 27 8 25 5 27 20 8 5 12 22 20 8 13 26 10 13 8 25 13 21 18 8 25 25 8 13 18 10 4 22 20 8 15 25 14125
0 1 0 1 1 1 1 1 1 1 1 1 1 1 0 1 0 1 1 1 1 1 1 1 1 1 1 1 0 0 
21 10 7 3 20 8 13 18 21 1 26 13 24 21 5 23 13 8 7 5 21 27 8 7 5 22 20 8 5 6 4 13 11 9 4 21 27 8 7 5 11 19 15 10 4 7 20 8 5 7 22 13 8 7 13 21 27 8 3 11 22 13 8 7 9 4 17 22 9 3 8 22 18 21 4 10 12 8 7 7 11 13 10 10 4 21 27 24 11 5 4 13 8 9 4 26 13 24 21 5 4 17 17 9 3 22 20 8 25 5 10 20 8 5 7 22 27 8 25 5 27 20 8 5 12 22 20 8 13 26 10 13 8 25 13 21 18 8 25 25 8 13 18 10 4 22 20 8 15 25 18925
0 1 0 1 1 1 1 1 1 1 1 1 1 1 0 1 0 1 1 1 1 1 1 1 1 1 1 1 0 0 
21 10 7 3 20 8 13 18 21 1 26 13 24 21 5 23 13 8 7 5 21 27 8 7 5 22 20 8 5 6 4 13 11 9 4 21 27 8 7 5 11 19 15 10 4 7 20 8 5 7 22 13 8 7 13 21 27 8 3 11 22 13 8 7 9 4 17 22 9 3 8 22 18 21 4 10 12 8 7 7 11 13 10 10 4 21 27 24 11 5 4 13 8 9 4 26 13 24 21 5 4 17 17 9 3 22 20 8 25 5 10 20 8 5 7 22 27 8 25 5 27 20 8 5 12 22 20 8 13 26 10 13 8 25 13 21 18 8 25 25 8 13 18 10 4 22 20 8 15 25 23725
0 1 0 1 1 1 1 1 1 1 1 1 1 1 0 1 0 1 1 1 1 1 1 1 1 1 1 1 0 0 
21 10 7 3 20 8 13 18 21 1 26 13 24 21 5 23 13 8 7 5 21 27 8 7 5 22 20 8 5 6 4 13 11 9 4 21 27 8 7 5 11 19 15 10 4 7 20 8 5 7 22 13 8 7 13 21 27 8 3 11 22 13 8 7 9 4 17 22 9 3 8 22 18 21 4 10 12 8 7 7 11 13 10 10 4 21 27 24 11 5 4 13 8 9 4 26 13 24 21 5 4 17 17 9 3 22 20 8 25 5 10 20 8 5 7 22 27 8 25 5 27 20 8 5 12 22 20 8 13 26 10 13 8 25 13 21 18 8 25 25 8 13 18 10 4 22 20 8 15 25 17101
0 1 0 1 1 1 1 1 1 1 1 1 1 1 0 1 1 1 1 1 1 1 1 1 1 1 1 1 0 0 
21 10 7 3 20 8 13 18 21 1 26 13 24 21 5 23 13 8 7 5 21 27 8 7 5 22 20 8 5 6 4 13 11 9 4 21 27 8 7 5 11 19 15 10 4 7 20 8 5 7 22 13 8 7 13 21 27 8 3 11 22 13 8 7 9 4 17 22 9 3 8 22 18 21 4 10 12 8 7 7 11 13 10 10 4 21 27 24 11 5 4 13 8 9 4 26 13 24 21 5 4 17 17 9 3 22 20 8 25 5 10 20 8 5 7 22 27 8 7 5 27 20 16 5 12 22 20 3 13 26 10 13 16 7 13 21 18 3 25 25 11 19 18 10 4 22 20 9 15 25 14467
0 1 0 1 1 1 1 1 1 1 1 1 1 1 0 1 1 1 1 1 1 1 1 1 1 1 1 1 0 0 
21 10 7 3 20 8 13 18 21 1 26 13 24 21 5 23 13 8 7 5 21 27 8 7 5 22 20 8 5 6 4 13 11 9 4 21 27 8 7 5 11 19 15 10 4 7 20 8 5 7 22 13 8 7 13 21 27 8 3 11 22 13 8 7 9 4 17 22 9 3 8 22 18 21 4 10 12 8 7 7 11 13 10 10 4 21 27 24 11 5 4 13 8 9 4 26 13 24 21 5 4 17 17 9 3 22 20 8 25 5 10 20 8 5 7 22 27 8 7 5 27 20 16 5 12 22 20 3 13 26 10 13 16 7 13 21 18 3 25 25 11 19 18 10 4 22 20 9 15 25 19467
0 1 0 1 1 1 1 1 1 1 1 1 1 1 0 1 1 1 1 1 1 1 1 1 1 1 1 1 0 0 
21 10 7 3 20 8 13 18 21 1 26 13 24 21 5 23 13 8 7 5 21 27 8 7 5 22 20 8 5 6 4 13 11 9 4 21 27 8 7 5 11 19 15 10 4 7 20 8 5 7 22 13 8 7 13 21 27 8 3 11 22 13 8 7 9 4 17 22 9 3 8 22 18 21 4 10 12 8 7 7 11 13 10 10 4 21 27 24 11 5 4 13 8 9 4 26 13 24 21 5 4 17 17 9 3 22 20 8 25 5 10 20 8 5 7 22 27 8 7 5 27 20 16 5 12 22 20 3 13 26 10 13 16 7 13 21 18 3 25 25 11 19 18 10 4 22 20 9 15 25 24467
0 1 0 1 1 1 1 1 1 1 1 1 1 1 0 1 1 1 1 1 1 1 1 1 1 1 1 1 0 0 
21 10 7 3 20 8 13 18 21 1 26 13 24 21 5 23 13 8 7 5 21 27 8 7 5 22 20 8 5 6 4 13 11 9 4 21 27 8 7 5 11 19 15 10 4 7 20 8 5 7 22 13 8 7 13 21 27 8 3 11 22 13 8 7 9 4 17 22 9 3 8 22 18 21 4 10 12 8 7 7 11 13 10 10 4 21 27 24 11 5 4 13 8 9 4 26 13 24 21 5 4 17 17 9 3 22 20 8 25 5 10 20 8 5 7 22 27 8 7 5 27 20 16 5 12 22 20 3 13 26 10 13 16 7 13 21 18 3 25 25 11 19 18 10 4 22 20 9 15 25 16627
0 1 0 1 1 1 1 1 1 1 1 1 1 1 0 1 0 1 1 1 1 1 1 1 1 1 1 1 0 0 
21 10 7 3 20 8 13 18 21 1 26 13 24 21 5 23 13 8 7 5 21 27 8 7 5 22 20 8 5 6 4 13 11 9 4 21 27 8 7 5 11 19 15 10 4 7 20 8 5 7 22 13 8 7 13 21 27 8 3 11 22 13 8 7 9 4 17 22 9 3 8 22 18 21 4 10 12 8 7 7 11 13 10 10 4 21 27 24 11 5 4 13 8 9 4 26 13 24 21 5 4 17 17 9 3 22 20 8 25 5 10 20 8 5 7 22 27 8 7 5 27 20 8 5 12 22 20 8 13 26 10 13 8 7 7 21 18 8 25 25 8 13 18 10 4 22 20 9 15 25 14097
0 1 0 1 1 1 1 1 1 1 1 1 1 1 0 1 0 1 1 1 1 1 1 1 1 1 1 1 0 0 
21 10 7 3 20 8 13 18 21 1 26 13 24 21 5 23 13 8 7 5 21 27 8 7 5 22 20 8 5 6 4 13 11 9 4 21 27 8 7 5 11 19 15 10 4 7 20 8 5 7 22 13 8 7 13 21 27 8 3 11 22 13 8 7 9 4 17 22 9 3 8 22 18 21 4 10 12 8 7 7 11 13 10 10 4 21 27 24 11 5 4 13 8 9 4 26 13 24 21 5 4 17 17 9 3 22 20 8 25 5 10 20 8 5 7 22 27 8 7 5 27 20 8 5 12 22 20 8 13 26 10 13 8 7 7 21 18 8 25 25 8 13 18 10 4 22 20 9 15 25 18897
0 1 0 1 1 1 1 1 1 1 1 1 1 1 0 1 0 1 1 1 1 1 1 1 1 1 1 1 0 0 
21 10 7 3 20 8 13 18 21 1 26 13 24 21 5 23 13 8 7 5 21 27 8 7 5 22 20 8 5 6 4 13 11 9 4 21 27 8 7 5 11 19 15 10 4 7 20 8 5 7 22 13 8 7 13 21 27 8 3 11 22 13 8 7 9 4 17 22 9 3 8 22 18 21 4 10 12 8 7 7 11 13 10 10 4 21 27 24 11 5 4 13 8 9 4 26 13 24 21 5 4 17 17 9 3 22 20 8 25 5 10 20 8 5 7 22 27 8 7 5 27 20 8 5 12 22 20 8 13 26 10 13 8 7 7 21 18 8 25 25 8 13 18 10 4 22 20 9 15 25 23697
0 1 0 1 1 1 1 1 1 1 1 1 1 1 0 1 0 1 1 1 1 1 1 1 1 1 1 1 0 0 
21 10 7 3 20 8 13 18 21 1 26 13 24 21 5 23 13 8 7 5 21 27 8 7 5 22 20 8 5 6 4 13 11 9 4 21 27 8 7 5 11 19 15 10 4 7 20 8 5 7 22 13 8 7 13 21 27 8 3 11 22 13 8 7 9 4 17 22 9 3 8 22 18 21 4 10 12 8 7 7 11 13 10 10 4 21 27 24 11 5 4 13 8 9 4 26 13 24 21 5 4 17 17 9 3 22 20 8 25 5 10 20 8 5 7 22 27 8 7 5 27 20 8 5 12 22 20 8 13 26 10 13 8 7 7 21 18 8 25 25 8 13 18 10 4 22 20 9 15 25 16597
0 1 0 1 1 1 1 1 1 1 1 1 1 1 0 1 0 1 1 1 1 1 1 1 1 1 1 1 0 0 
21 10 7 3 20 8 13 18 21 1 26 13 24 21 5 23 13 8 7 5 21 27 8 7 5 22 20 8 5 6 4 13 11 9 4 21 27 8 7 5 11 19 15 10 4 7 20 8 5 7 22 13 8 7 13 21 27 8 3 11 22 13 8 7 9 4 17 22 9 3 8 22 18 21 4 10 12 8 7 7 11 13 10 10 4 21 27 24 11 5 4 13 8 9 4 26 13 24 21 5 4 17 17 9 3 22 20 8 25 5 10 20 8 5 7 22 27 8 7 5 27 20 8 5 12 22 20 8 13 26 10 13 8 7 7 21 18 8 25 25 8 13 18 10 4 22 20 8 15 25 14067
0 1 0 1 1 1 1 1 1 1 1 1 1 1 0 1 0 1 1 1 1 1 1 1 1 1 1 1 0 0 
21 10 7 3 20 8 13 18 21 1 26 13 24 21 5 23 13 8 7 5 21 27 8 7 5 22 20 8 5 6 4 13 11 9 4 21 27 8 7 5 11 19 15 10 4 7 20 8 5 7 22 13 8 7 13 21 27 8 3 11 22 13 8 7 9 4 17 22 9 3 8 22 18 21 4 10 12 8 7 7 11 13 10 10 4 21 27 24 11 5 4 13 8 9 4 26 13 24 21 5 4 17 17 9 3 22 20 8 25 5 10 20 8 5 7 22 27 8 7 5 27 20 8 5 12 22 20 8 13 26 10 13 8 7 7 21 18 8 25 25 8 13 18 10 4 22 20 8 15 25 18867
0 1 0 1 1 1 1 1 1 1 1 1 1 1 0 1 0 1 1 1 1 1 1 1 1 1 1 1 0 0 
21 10 7 3 20 8 13 18 21 1 26 13 24 21 5 23 13 8 7 5 21 27 8 7 5 22 20 8 5 6 4 13 11 9 4 21 27 8 7 5 11 19 15 10 4 7 20 8 5 7 22 13 8 7 13 21 27 8 3 11 22 13 8 7 9 4 17 22 9 3 8 22 18 21 4 10 12 8 7 7 11 13 10 10 4 21 27 24 11 5 4 13 8 9 4 26 13 24 21 5 4 17 17 9 3 22 20 8 25 5 10 20 8 5 7 22 27 8 7 5 27 20 8 5 12 22 20 8 13 26 10 13 8 7 7 21 18 8 25 25 8 13 18 10 4 22 20 8 15 25 23667
0 1 0 1 1 1 1 1 1 1 1 1 1 1 0 1 0 1 1 1 1 1 1 1 1 1 1 1 0 0 
21 10 7 3 20 8 13 18 21 1 26 13 24 21 5 23 13 8 7 5 21 27 8 7 5 22 20 8 5 6 4 13 11 9 4 21 27 8 7 5 11 19 15 10 4 7 20 8 5 7 22 13 8 7 13 21 27 8 3 11 22 13 8 7 9 4 17 22 9 3 8 22 18 21 4 10 12 8 7 7 11 13 10 10 4 21 27 24 11 5 4 13 8 9 4 26 13 24 21 5 4 17 17 9 3 22 20 8 25 5 10 20 8 5 7 22 27 8 7 5 27 20 8 5 12 22 20 8 13 26 10 13 8 7 7 21 18 8 25 25 8 13 18 10 4 22 20 8 15 25 8896
1 1 1 1 1 1 1 1 1 0 
2 8 8 1 6 8 4 3 0 3 3 1 8 5 1 2 2 6 4 2 0 5 0 6 6 7 1 7 7 5 4 3 7 3 4 0 2 0 7 1 5 0 8 2 0 0 0 5 1 5 7 3 3 0 3 1 0 7 8 1 5 8 6 4 6 5 5 7 5 3 5 0 8 8 5 0 6 7 3 4 3 5 4 5 5 7 4 5 6 6 10247
1 1 1 1 1 1 1 1 1 1 1 1 1 1 1 1 1 1 1 0 
16 17 0 6 9 10 0 6 17 8 16 5 2 6 2 5 7 9 2 2 3 0 5 4 12 11 9 12 9 10 12 6 11 13 6 11 3 2 4 4 1 15 18 10 2 6 4 4 0 4 16 0 7 9 14 5 18 14 17 10 4 17 8 7 6 7 10 6 8 8 11 6 5 11 7 15 14 11 7 8 13490
1 1 1 1 1 1 1 1 1 1 1 1 1 1 1 1 1 1 1 1 1 1 1 1 1 1 1 1 1 0 
20 21 18 22 16 21 18 12 15 10 9 23 20 4 27 24 28 16 1 6 10 13 22 19 10 22 5 9 14 11 22 13 8 15 5 17 8 22 26 25 14 8 14 23 11 14 6 13 17 7 20 15 2 7 1 3 3 13 14 0 26 11 6 26 12 7 22 18 16 23 12210
1 1 1 1 1 1 1 1 1 0 
6 1 1 6 1 2 4 3 7 8 7 0 0 3 0 7 4 8 8 7 8 0 4 4 7 5 4 0 1 7 4 8 3 3 2 5 3 1 1 7 0 2 1 0 7 5 1 1 6 7 2 0 3 7 8 2 2 6 6 0 5 7 6 5 7 2 6 6 7 0 3 0 8 7 7 6 5 5 7 5 4 5 7 7 6 4 4 2 2 3 12527
1 1 1 1 1 1 1 1 1 1 1 1 1 1 1 1 1 1 1 0 
3 18 15 2 8 18 4 9 18 0 0 1 17 0 1 5 17 6 2 7 0 12 16 17 14 18 17 2 7 0 7 8 17 0 10 16 18 0 18 1 7 0 18 9 17 8 2 16 17 7 3 7 8 0 11 12 17 14 16 14 9 18 17 2 1 14 5 17 17 14 12 13 9 18 14 10 1 18 15 10 13804
1 1 1 1 1 1 1 1 1 1 1 1 1 1 1 0 1 1 1 1 1 1 0 1 1 1 1 1 1 0 
5 4 18 19 11 8 14 17 6 0 2 9 13 7 24 7 6 7 2 19 12 28 2 13 14 28 4 13 7 11 9 28 17 28 26 7 12 1 28 6 27 7 8 16 3 21 10 0 2 20 12 19 23 3 24 13 25 14 6 24 4 28 24 26 21 5 19 12 24 10 14029
1 1 1 1 1 1 1 1 1 0 
2 8 0 8 1 5 7 6 7 6 3 6 1 6 5 7 6 8 8 4 1 8 6 5 7 6 0 8 7 7 0 6 2 1 7 0 8 7 1 6 0 6 0 7 0 3 7 7 5 7 0 0 1 0 3 7 1 6 1 4 6 7 7 0 7 2 5 7 4 5 2 7 3 7 2 6 3 5 7 7 7 2 2 2 6 3 5 6 6 5 13077
1 1 1 1 1 1 1 0 0 1 1 1 1 1 1 1 0 0 1 0 
3 0 12 0 6 0 12 0 12 1 1 0 13 3 1 0 15 0 1 0 18 1 1 0 18 5 14 11 18 9 14 11 15 12 1 11 18 18 13 11 15 11 5 3 15 11 4 11 15 11 10 11 15 12 12 11 3 11 18 2 3 12 18 4 3 12 9 5 3 13 9 10 2 3 9 13 2 3 9 15 13277
1 1 1 1 1 1 0 1 0 0 1 0 1 1 1 1 1 1 0 1 1 1 1 1 0 1 1 1 1 0 
0 22 12 1 25 5 12 10 22 20 1 28 1 12 13 3 27 0 2 12 0 22 5 26 3 26 15 7 27 0 23 10 1 23 7 28 4 2 19 1 28 0 27 14 23 25 12 17 7 27 20 0 28 3 28 14 2 27 0 23 10 3 21 3 28 4 23 16 2 27 10571
1 1 1 1 1 1 1 1 1 0 
3 1 0 6 0 5 8 2 8 1 5 2 6 6 1 2 0 2 8 1 5 7 6 6 4 2 8 5 2 5 0 7 6 2 7 0 8 5 0 5 2 1 7 2 2 2 8 5 0 5 6 7 6 5 5 1 8 5 7 5 1 2 0 6 0 2 7 2 8 1 0 7 6 0 7 1 2 5 7 5 5 7 6 2 4 1 7 5 7 5 5 2 6 6 3 2 8 2 3 7 11004
1 1 1 1 0 1 1 1 1 1 1 1 1 1 1 1 1 1 1 0 
1 0 12 13 11 9 6 11 8 9 6 6 11 8 7 11 7 12 15 8 5 6 12 8 8 6 15 11 8 7 1 0 16 12 11 0 6 11 8 7 6 6 11 8 7 0 6 11 9 7 3 0 15 12 8 5 7 17 15 15 5 6 11 0 3 5 16 3 0 10 11 5 14 15 11 0 12 10 9 0 7 6 11 0 2 0 7 9 15 0 5 16 18 0 11 2 13 9 17 0 15875
1 1 1 1 1 1 1 1 1 0 
8 3 3 8 8 2 4 3 2 0 1 3 3 8 0 3 6 3 0 1 5 1 3 8 5 4 7 7 7 7 5 2 3 6 6 2 4 3 1 7 5 3 3 8 6 2 4 2 1 7 5 7 3 2 7 5 2 0 4 4 2 1 3 6 3 3 0 0 0 2 7 3 3 6 5 4 7 2 7 7 5 7 3 2 8 5 5 3 2 0 5 7 7 2 0 5 6 0 4 4 14715
1 1 1 1 1 1 0 1 1 1 1 1 1 1 1 1 0 1 1 0 
11 3 12 4 9 8 3 11 13 9 17 3 15 1 14 12 3 11 13 9 8 3 11 4 9 5 18 5 7 17 13 3 12 8 17 13 3 12 4 9 11 3 15 5 11 17 9 15 1 14 11 3 12 8 17 11 3 15 5 10 17 0 8 5 2 18 3 8 5 2 1 18 13 0 0 17 3 15 2 4 1 18 14 7 17 1 18 13 10 12 2 18 1 0 0 13 3 12 4 1 16324
1 1 1 1 1 1 1 1 1 0 
4 2 0 3 0 4 4 6 5 0 4 6 3 3 2 1 6 4 5 0 4 0 2 5 2 1 6 4 8 0 4 0 3 5 8 1 6 4 8 0 4 0 2 3 2 1 4 4 5 0 4 0 0 3 2 4 6 3 8 7 4 6 3 0 2 4 7 1 8 7 2 2 2 3 2 1 6 4 8 8 4 6 3 3 2 8 6 4 8 7 4 3 2 3 2 4 6 4 8 5 15154
1 0 1 1 1 1 1 1 1 1 1 1 0 1 1 1 1 0 1 0 
4 3 8 6 9 4 0 2 6 9 9 2 2 14 9 4 0 2 4 9 4 2 2 14 10 4 2 2 4 8 4 3 11 6 9 4 3 14 7 9 13 2 2 14 18 4 0 0 16 9 4 3 0 7 9 4 3 0 0 10 4 6 2 6 10 4 2 2 4 5 4 3 11 6 10 4 2 2 4 2 2 2 2 14 10 0 2 6 14 15 0 0 6 14 15 4 3 0 8 10 27902
1 1 1 1 1 1 1 1 1 1 1 1 1 1 1 1 1 1 1 1 1 1 1 1 1 1 1 1 1 0 
19 20 1 15 9 3 8 3 6 25 9 4 10 14 9 2 7 16 16 20 16 16 4 19 17 8 7 0 3 16 4 5 7 3 2 16 7 24 24 10 1 12 12 1 3 22 12 5 22 19 17 14 24 4 17 4 5 5 14 15 17 27 13 25 15 21 5 14 9 10 18 3 2 8 0 15 16 11 3 14 5 25 11 23 20 5 15 2 24 15 9 7 0 27 7 17 20 8 11 3 6 9 19 11 27 7 1 23 13 9 25 1 9 21 7 17 18 8 11 18 0 10 10 13 28 15 21 20 8 2 23 12 12 9 16 26 5 23 14 1 2 17 19 11 6 19 11 8 18 9 8 11 5 22 4 25 0 24 12 17 23 8 19 17 26 0 2 5 19 23 2 14 24 20 23 10 2 14 27 4 26 4 28 22 28 15 27 1 28 20 16 8 26 20 8 10 4 1 27 8 36602
1 1 1 1 1 1 1 1 1 1 1 1 1 1 1 1 1 1 1 1 1 1 1 1 1 1 1 1 1 0 
19 20 1 15 9 3 8 3 6 25 9 4 10 14 9 2 7 16 16 20 16 16 4 19 17 8 7 0 3 16 4 5 7 3 2 16 7 24 24 10 1 12 12 1 3 22 12 5 22 19 17 14 24 4 17 4 5 5 14 15 17 27 13 25 15 21 5 14 9 10 18 3 2 8 0 15 16 11 3 14 5 25 11 23 20 5 15 2 24 15 9 7 0 27 7 17 20 8 11 3 6 9 19 11 27 7 1 23 13 9 25 1 9 21 7 17 18 8 11 18 0 10 10 13 28 15 21 20 8 2 23 12 12 9 16 26 5 23 14 1 2 17 19 11 6 19 11 8 18 9 8 11 5 22 4 25 0 24 12 17 23 8 19 17 26 0 2 5 19 23 2 14 24 20 23 10 2 14 27 4 26 4 28 22 28 15 27 1 28 20 16 8 26 20 8 10 4 1 27 8 56902
1 1 1 1 1 1 1 1 1 1 1 1 1 1 1 1 1 1 1 1 1 1 1 1 1 1 1 1 1 0 
19 20 1 15 9 3 8 3 6 25 9 4 10 14 9 2 7 16 16 20 16 16 4 19 17 8 7 0 3 16 4 5 7 3 2 16 7 24 24 10 1 12 12 1 3 22 12 5 22 19 17 14 24 4 17 4 5 5 14 15 17 27 13 25 15 21 5 14 9 10 18 3 2 8 0 15 16 11 3 14 5 25 11 23 20 5 15 2 24 15 9 7 0 27 7 17 20 8 11 3 6 9 19 11 27 7 1 23 13 9 25 1 9 21 7 17 18 8 11 18 0 10 10 13 28 15 21 20 8 2 23 12 12 9 16 26 5 23 14 1 2 17 19 11 6 19 11 8 18 9 8 11 5 22 4 25 0 24 12 17 23 8 19 17 26 0 2 5 19 23 2 14 24 20 23 10 2 14 27 4 26 4 28 22 28 15 27 1 28 20 16 8 26 20 8 10 4 1 27 8 43021
1 1 1 1 1 1 1 1 1 1 1 1 1 1 1 1 1 1 1 1 1 1 1 1 1 1 1 1 1 0 
19 20 1 15 9 3 8 3 6 25 9 4 10 14 9 2 7 16 16 20 16 16 4 19 17 8 7 0 3 16 4 5 7 3 2 16 7 24 24 10 1 12 12 1 3 22 12 5 22 19 17 14 24 4 17 4 5 5 14 15 17 27 13 25 15 21 5 14 9 10 18 3 2 8 0 15 16 11 3 14 5 25 11 23 20 5 15 2 24 15 9 7 0 27 7 17 20 8 11 3 6 9 19 11 27 7 1 23 13 9 25 1 9 21 7 17 18 8 11 18 0 10 10 13 28 15 21 20 8 2 23 12 12 9 16 26 5 23 14 1 2 17 19 11 6 19 11 8 18 9 8 11 5 22 4 25 0 24 12 17 23 8 19 17 26 0 2 5 19 23 2 14 24 20 23 10 2 14 27 4 26 4 28 22 28 15 27 1 28 20 16 8 26 20 8 10 4 1 27 8 27902
1 1 1 1 1 1 1 1 1 1 1 1 1 1 1 1 1 1 1 1 1 1 1 1 1 1 1 1 1 0 
19 20 1 15 9 3 8 3 6 25 9 4 10 14 9 2 7 16 16 20 16 16 4 19 17 8 7 0 3 16 4 5 7 3 2 16 7 24 24 10 1 12 12 1 3 22 12 5 22 19 17 14 24 4 17 4 5 5 14 15 17 27 13 25 15 21 5 14 9 10 18 3 2 8 0 15 16 11 3 14 5 25 11 23 20 5 15 2 24 15 9 7 0 27 7 17 20 8 11 3 6 9 19 11 27 7 1 23 13 9 25 1 9 21 7 17 18 8 11 18 0 10 10 13 28 15 21 20 8 2 23 12 12 9 16 26 5 23 14 1 2 17 19 11 6 19 11 8 18 9 8 11 5 22 4 25 0 24 12 17 23 8 19 17 26 0 2 5 19 23 2 14 24 20 23 10 2 14 27 4 26 4 28 22 28 15 27 1 28 20 16 8 26 20 8 10 4 1 27 8 36602
1 1 1 1 1 1 1 1 1 1 1 1 1 1 1 1 1 1 1 1 1 1 1 1 1 1 1 1 1 0 
19 20 1 15 9 3 8 3 6 25 9 4 10 14 9 2 7 16 16 20 16 16 4 19 17 8 7 0 3 16 4 5 7 3 2 16 7 24 24 10 1 12 12 1 3 22 12 5 22 19 17 14 24 4 17 4 5 5 14 15 17 27 13 25 15 21 5 14 9 10 18 3 2 8 0 15 16 11 3 14 5 25 11 23 20 5 15 2 24 15 9 7 0 27 7 17 20 8 11 3 6 9 19 11 27 7 1 23 13 9 25 1 9 21 7 17 18 8 11 18 0 10 10 13 28 15 21 20 8 2 23 12 12 9 16 26 5 23 14 1 2 17 19 11 6 19 11 8 18 9 8 11 5 22 4 25 0 24 12 17 23 8 19 17 26 0 2 5 19 23 2 14 24 20 23 10 2 14 27 4 26 4 28 22 28 15 27 1 28 20 16 8 26 20 8 10 4 1 27 8 56902
1 1 1 1 1 1 1 1 1 1 1 1 1 1 1 1 1 1 1 1 1 1 1 1 1 1 1 1 1 0 
19 20 1 15 9 3 8 3 6 25 9 4 10 14 9 2 7 16 16 20 16 16 4 19 17 8 7 0 3 16 4 5 7 3 2 16 7 24 24 10 1 12 12 1 3 22 12 5 22 19 17 14 24 4 17 4 5 5 14 15 17 27 13 25 15 21 5 14 9 10 18 3 2 8 0 15 16 11 3 14 5 25 11 23 20 5 15 2 24 15 9 7 0 27 7 17 20 8 11 3 6 9 19 11 27 7 1 23 13 9 25 1 9 21 7 17 18 8 11 18 0 10 10 13 28 15 21 20 8 2 23 12 12 9 16 26 5 23 14 1 2 17 19 11 6 19 11 8 18 9 8 11 5 22 4 25 0 24 12 17 23 8 19 17 26 0 2 5 19 23 2 14 24 20 23 10 2 14 27 4 26 4 28 22 28 15 27 1 28 20 16 8 26 20 8 10 4 1 27 8 43021
1 1 1 1 1 1 1 1 1 1 1 1 1 1 1 1 1 1 1 1 1 1 1 1 1 1 1 1 1 0 
19 20 1 15 9 3 8 3 6 25 9 4 10 14 9 2 7 16 16 20 16 16 4 19 17 8 7 0 3 16 4 5 7 3 2 16 7 24 24 10 1 12 12 1 3 22 12 5 22 19 17 14 24 4 17 4 5 5 14 15 17 27 13 25 15 21 5 14 9 10 18 3 2 8 0 15 16 11 3 14 5 25 11 23 20 5 15 2 24 15 9 7 0 27 7 17 20 8 11 3 6 9 19 11 27 7 1 23 13 9 25 1 9 21 7 17 18 8 11 18 0 10 10 13 28 15 21 20 8 2 23 12 12 9 16 26 5 23 14 1 2 17 19 11 6 19 11 8 18 9 8 11 5 22 4 25 0 24 12 17 23 8 19 17 26 0 2 5 19 23 2 14 24 20 23 10 2 14 27 4 26 4 28 22 28 15 27 1 28 20 16 8 26 20 8 10 4 1 27 8 27902
1 1 1 1 1 1 1 1 1 1 1 1 1 1 1 1 1 1 1 1 1 1 1 1 1 1 1 1 1 0 
19 20 1 15 9 3 8 3 6 25 9 4 10 14 9 2 7 16 16 20 16 16 4 19 17 8 7 0 3 16 4 5 7 3 2 16 7 24 24 10 1 12 12 1 3 22 12 5 22 19 17 14 24 4 17 4 5 5 14 15 17 27 13 25 15 21 5 14 9 10 18 3 2 8 0 15 16 11 3 14 5 25 11 23 20 5 15 2 24 15 9 7 0 27 7 17 20 8 11 3 6 9 19 11 27 7 1 23 13 9 25 1 9 21 7 17 18 8 11 18 0 10 10 13 28 15 21 20 8 2 23 12 12 9 16 26 5 23 14 1 2 17 19 11 6 19 11 8 18 9 8 11 5 22 4 25 0 24 12 17 23 8 19 17 26 0 2 5 19 23 2 14 24 20 23 10 2 14 27 4 26 4 28 22 28 15 27 1 28 20 16 8 26 20 8 10 4 1 27 8 36602
1 1 1 1 1 1 1 1 1 1 1 1 1 1 1 1 1 1 1 1 1 1 1 1 1 1 1 1 1 0 
19 20 1 15 9 3 8 3 6 25 9 4 10 14 9 2 7 16 16 20 16 16 4 19 17 8 7 0 3 16 4 5 7 3 2 16 7 24 24 10 1 12 12 1 3 22 12 5 22 19 17 14 24 4 17 4 5 5 14 15 17 27 13 25 15 21 5 14 9 10 18 3 2 8 0 15 16 11 3 14 5 25 11 23 20 5 15 2 24 15 9 7 0 27 7 17 20 8 11 3 6 9 19 11 27 7 1 23 13 9 25 1 9 21 7 17 18 8 11 18 0 10 10 13 28 15 21 20 8 2 23 12 12 9 16 26 5 23 14 1 2 17 19 11 6 19 11 8 18 9 8 11 5 22 4 25 0 24 12 17 23 8 19 17 26 0 2 5 19 23 2 14 24 20 23 10 2 14 27 4 26 4 28 22 28 15 27 1 28 20 16 8 26 20 8 10 4 1 27 8 56902
1 1 1 1 1 1 1 1 1 1 1 1 1 1 1 1 1 1 1 1 1 1 1 1 1 1 1 1 1 0 
19 20 1 15 9 3 8 3 6 25 9 4 10 14 9 2 7 16 16 20 16 16 4 19 17 8 7 0 3 16 4 5 7 3 2 16 7 24 24 10 1 12 12 1 3 22 12 5 22 19 17 14 24 4 17 4 5 5 14 15 17 27 13 25 15 21 5 14 9 10 18 3 2 8 0 15 16 11 3 14 5 25 11 23 20 5 15 2 24 15 9 7 0 27 7 17 20 8 11 3 6 9 19 11 27 7 1 23 13 9 25 1 9 21 7 17 18 8 11 18 0 10 10 13 28 15 21 20 8 2 23 12 12 9 16 26 5 23 14 1 2 17 19 11 6 19 11 8 18 9 8 11 5 22 4 25 0 24 12 17 23 8 19 17 26 0 2 5 19 23 2 14 24 20 23 10 2 14 27 4 26 4 28 22 28 15 27 1 28 20 16 8 26 20 8 10 4 1 27 8 43488
1 1 1 1 1 1 1 1 1 1 1 1 1 1 1 1 1 1 1 1 1 1 1 1 1 1 1 1 1 0 
19 20 1 8 9 3 8 3 24 5 9 4 10 14 9 2 7 16 16 20 16 16 4 19 17 8 21 0 3 16 4 5 7 3 2 16 7 24 24 10 1 12 12 1 3 22 12 5 22 19 17 14 24 4 17 4 2 5 14 15 17 27 22 25 15 21 5 14 9 10 18 3 2 8 22 15 12 11 3 14 5 25 11 23 20 5 15 2 24 15 9 7 0 27 28 17 20 8 11 3 6 9 19 11 27 7 1 23 13 9 25 17 9 1 7 17 18 8 11 18 0 10 10 13 28 15 21 20 8 2 23 12 12 9 16 26 5 23 14 1 2 17 19 11 6 19 11 8 11 9 8 11 5 22 4 25 0 24 12 17 23 8 19 17 26 0 2 5 19 23 2 14 24 20 23 23 2 14 27 4 26 4 28 22 28 15 8 1 28 20 16 8 26 20 8 10 4 1 27 8 27902
1 1 1 1 1 1 1 1 1 1 1 1 1 1 1 1 1 1 1 1 1 1 1 1 1 1 1 1 1 0 
19 20 1 15 9 3 8 3 6 25 9 4 10 14 9 2 7 16 16 20 16 16 4 19 17 8 7 0 3 16 4 5 7 3 2 16 7 24 24 10 1 12 12 1 3 22 12 5 22 19 17 14 24 4 17 4 5 5 14 15 17 27 13 25 15 21 5 14 9 10 18 3 2 8 0 15 16 11 3 14 5 25 11 23 20 5 15 2 24 15 9 7 0 27 7 17 20 8 11 3 6 9 19 11 27 7 1 23 13 9 25 1 9 21 7 17 18 8 11 18 0 10 10 13 28 15 21 20 8 2 23 12 12 9 16 26 5 23 14 1 2 17 19 11 6 19 11 8 18 9 8 11 5 22 4 25 0 24 12 17 23 8 19 17 26 0 2 5 19 23 2 14 24 20 23 10 2 14 27 4 26 4 28 22 28 15 27 1 28 20 16 8 26 20 8 10 4 1 27 8 36602
1 1 1 1 1 1 1 1 1 1 1 1 1 1 1 1 1 1 1 1 1 1 1 1 1 1 1 1 1 0 
19 20 1 15 9 3 8 3 6 25 9 4 10 14 9 2 7 16 16 20 16 16 4 19 17 8 7 0 3 16 4 5 7 3 2 16 7 24 24 10 1 12 12 1 3 22 12 5 22 19 17 14 24 4 17 4 5 5 14 15 17 27 13 25 15 21 5 14 9 10 18 3 2 8 0 15 16 11 3 14 5 25 11 23 20 5 15 2 24 15 9 7 0 27 7 17 20 8 11 3 6 9 19 11 27 7 1 23 13 9 25 1 9 21 7 17 18 8 11 18 0 10 10 13 28 15 21 20 8 2 23 12 12 9 16 26 5 23 14 1 2 17 19 11 6 19 11 8 18 9 8 11 5 22 4 25 0 24 12 17 23 8 19 17 26 0 2 5 19 23 2 14 24 20 23 10 2 14 27 4 26 4 28 22 28 15 27 1 28 20 16 8 26 20 8 10 4 1 27 8 56902
1 1 1 1 1 1 1 1 1 1 1 1 1 1 1 1 1 1 1 1 1 1 1 1 1 1 1 1 1 0 
19 20 1 15 9 3 8 3 6 25 9 4 10 14 9 2 7 16 16 20 16 16 4 19 17 8 7 0 3 16 4 5 7 3 2 16 7 24 24 10 1 12 12 1 3 22 12 5 22 19 17 14 24 4 17 4 5 5 14 15 17 27 13 25 15 21 5 14 9 10 18 3 2 8 0 15 16 11 3 14 5 25 11 23 20 5 15 2 24 15 9 7 0 27 7 17 20 8 11 3 6 9 19 11 27 7 1 23 13 9 25 1 9 21 7 17 18 8 11 18 0 10 10 13 28 15 21 20 8 2 23 12 12 9 16 26 5 23 14 1 2 17 19 11 6 19 11 8 18 9 8 11 5 22 4 25 0 24 12 17 23 8 19 17 26 0 2 5 19 23 2 14 24 20 23 10 2 14 27 4 26 4 28 22 28 15 27 1 28 20 16 8 26 20 8 10 4 1 27 8 43021
1 1 1 1 1 1 1 1 1 1 1 1 1 1 1 1 1 1 1 1 1 1 1 1 1 1 1 1 1 0 
19 20 1 15 9 3 8 3 6 25 9 4 10 14 9 2 7 16 16 20 16 16 4 19 17 8 7 0 3 16 4 5 7 3 2 16 7 24 24 10 1 12 12 1 3 22 12 5 22 19 17 14 24 4 17 4 5 5 14 15 17 27 13 25 15 21 5 14 9 10 18 3 2 8 0 15 16 11 3 14 5 25 11 23 20 5 15 2 24 15 9 7 0 27 7 17 20 8 11 3 6 9 19 11 27 7 1 23 13 9 25 1 9 21 7 17 18 8 11 18 0 10 10 13 28 15 21 20 8 2 23 12 12 9 16 26 5 23 14 1 2 17 19 11 6 19 11 8 18 9 8 11 5 22 4 25 0 24 12 17 23 8 19 17 26 0 2 5 19 23 2 14 24 20 23 10 2 14 27 4 26 4 28 22 28 15 27 1 28 20 16 8 26 20 8 10 4 1 27 8 